; startingXbrush-knee-manual-interpolation-4
(set-info :status unknown)
(set-logic QF_AUFLIRA)
(declare-fun |HandLeft Norm| () Real)
(declare-fun |HandLeft Z| () Real)
(declare-fun |SpineMid Norm| () Real)
(declare-fun |SpineMid Z| () Real)
(declare-fun |SpineShoulder Norm| () Real)
(declare-fun |SpineShoulder Z| () Real)
(declare-fun |ShoulderLeft Norm| () Real)
(declare-fun |ShoulderLeft Z| () Real)
(declare-fun |ElbowLeft Norm| () Real)
(declare-fun |WristLeft Norm| () Real)
(declare-fun |HipLeft Norm| () Real)
(declare-fun |HipLeft Z| () Real)
(declare-fun |HandLeft Y| () Real)
(declare-fun |SpineMid Y| () Real)
(declare-fun |SpineShoulder Y| () Real)
(declare-fun |ShoulderLeft Y| () Real)
(declare-fun |HipLeft Y| () Real)
(declare-fun |HandLeft X| () Real)
(declare-fun |SpineMid X| () Real)
(declare-fun |SpineShoulder X| () Real)
(declare-fun |ShoulderLeft X| () Real)
(declare-fun |HipLeft X| () Real)
(declare-fun |ElbowRight Norm| () Real)
(declare-fun |ShoulderRight Norm| () Real)
(declare-fun |ShoulderRight Z| () Real)
(declare-fun |ShoulderRight Y| () Real)
(declare-fun |ShoulderRight X| () Real)
(declare-fun |WristRight Norm| () Real)
(declare-fun |AnkleLeft Z| () Real)
(declare-fun |KneeRight Z| () Real)
(declare-fun |AnkleLeft Y| () Real)
(declare-fun |KneeRight Y| () Real)
(declare-fun |AnkleLeft X| () Real)
(declare-fun |KneeRight X| () Real)
(declare-fun |KneeLeft Z| () Real)
(declare-fun |KneeLeft Y| () Real)
(declare-fun |KneeLeft X| () Real)
(declare-fun |ThumbRight Z| () Real)
(declare-fun |ThumbRight Y| () Real)
(declare-fun |ThumbRight X| () Real)
(assert
(let ((?x5357 (* |HandLeft Z| |HandLeft Norm|)))
(let ((?x159 (* |SpineMid Z| |SpineMid Norm|)))
(let ((?x435 (* |SpineShoulder Z| |SpineShoulder Norm|)))
(let ((?x420 (* |ShoulderLeft Z| |ShoulderLeft Norm|)))
(let ((?x172 (* (/ 1.0 2.0) (~ 1.0))))
(let ((?x169 (* (/ 433.0 500.0) 0.0)))
(let ((?x173 (+ ?x169 ?x172)))
(let ((?x170 (* (~ (/ 1.0 2.0)) (~ 1.0))))
(let ((?x171 (+ ?x169 ?x170)))
(let (($x112 (>= 0.0 0.0)))
(let ((?x174 (ite $x112 ?x171 ?x173)))
(let ((?x113 (- 0.0 0.0)))
(let ((?x114 (ite $x112 0.0 ?x113)))
(let (($x115 (>= ?x114 ?x114)))
(let ((?x175 (ite $x115 ?x174 0.0)))
(let ((?x7577 (* (~ (/ 129.0 500.0)) ?x175)))
(let ((?x183 (ite $x115 0.0 ?x174)))
(let ((?x7581 (* (/ 193.0 200.0) ?x183)))
(let ((?x7583 (+ ?x7581 ?x7577)))
(let ((?x7575 (* (/ 129.0 500.0) ?x175)))
(let ((?x7582 (+ ?x7581 ?x7575)))
(let (($x6950 (>= ?x183 0.0)))
(let ((?x7584 (ite $x6950 ?x7582 ?x7583)))
(let ((?x6376 (- 0.0 ?x183)))
(let ((?x6176 (ite $x6950 ?x183 ?x6376)))
(let ((?x177 (* (/ 433.0 500.0) (~ 1.0))))
(let ((?x179 (* (~ (/ 1.0 2.0)) 0.0)))
(let ((?x180 (+ ?x179 ?x177)))
(let ((?x176 (* (/ 1.0 2.0) 0.0)))
(let ((?x178 (+ ?x176 ?x177)))
(let ((?x181 (ite $x112 ?x178 ?x180)))
(let ((?x182 (ite $x115 ?x181 ?x181)))
(let ((?x6813 (- 0.0 ?x182)))
(let (($x7500 (>= ?x182 0.0)))
(let ((?x6812 (ite $x7500 ?x182 ?x6813)))
(let (($x7878 (>= ?x6812 ?x6176)))
(let ((?x7585 (ite $x7878 ?x183 ?x7584)))
(let ((?x6373 (* (/ 193.0 200.0) ?x175)))
(let ((?x7572 (* (/ 129.0 500.0) ?x183)))
(let ((?x7573 (+ ?x7572 ?x6373)))
(let ((?x7466 (* (~ (/ 129.0 500.0)) ?x183)))
(let ((?x7571 (+ ?x7466 ?x6373)))
(let ((?x7467 (ite $x6950 ?x7571 ?x7573)))
(let ((?x7463 (* (/ 129.0 500.0) ?x182)))
(let ((?x7570 (+ ?x7463 ?x6373)))
(let ((?x7881 (* (~ (/ 129.0 500.0)) ?x182)))
(let ((?x6956 (+ ?x7881 ?x6373)))
(let ((?x7465 (ite $x7500 ?x6956 ?x7570)))
(let ((?x7468 (ite $x7878 ?x7465 ?x7467)))
(let ((?x9917 (* (/ 7.0 80.0) ?x7468)))
(let ((?x9687 (* (/ 249.0 250.0) ?x7585)))
(let (($x5097 (>= ?x7585 0.0)))
(let ((?x9853 (- 0.0 ?x7585)))
(let ((?x9690 (ite $x5097 ?x7585 ?x9853)))
(let ((?x7574 (* (/ 193.0 200.0) ?x182)))
(let ((?x7578 (+ ?x7574 ?x7577)))
(let ((?x7576 (+ ?x7574 ?x7575)))
(let ((?x7579 (ite $x7500 ?x7576 ?x7578)))
(let ((?x7580 (ite $x7878 ?x7579 ?x182)))
(let ((?x5711 (- 0.0 ?x7580)))
(let (($x1076 (>= ?x7580 0.0)))
(let ((?x8734 (ite $x1076 ?x7580 ?x5711)))
(let (($x9815 (>= ?x8734 ?x9690)))
(let ((?x9203 (ite $x9815 ?x7585 (ite $x5097 (+ ?x9687 (* (~ (/ 7.0 80.0)) ?x7468)) (+ ?x9687 ?x9917)))))
(let ((?x4357 (+ 0.0 ?x5357)))
(let ((?x3972 (+ (+ (+ ?x4357 (* ?x9203 |WristLeft Norm|)) (* ?x7585 |ElbowLeft Norm|)) ?x420)))
(let ((?x258 (* |HipLeft Z| |HipLeft Norm|)))
(let ((?x6544 (+ (+ 0.0 ?x258) ?x258)))
(let ((?x3501 (- ?x6544 (+ (+ (+ ?x3972 ?x435) ?x159) ?x5357))))
(let ((?x7249 (ite (>= ?x3501 0.0) ?x3501 (- 0.0 ?x3501))))
(let ((?x5556 (* |HandLeft Y| |HandLeft Norm|)))
(let ((?x443 (* |SpineMid Y| |SpineMid Norm|)))
(let ((?x427 (* |SpineShoulder Y| |SpineShoulder Norm|)))
(let ((?x417 (* |ShoulderLeft Y| |ShoulderLeft Norm|)))
(let ((?x9212 (ite $x1076 (+ (* (/ 249.0 250.0) ?x7580) (* (~ (/ 7.0 80.0)) ?x7468)) (+ (* (/ 249.0 250.0) ?x7580) ?x9917))))
(let ((?x9684 (ite $x9815 ?x9212 ?x7580)))
(let ((?x3426 (+ 0.0 ?x5556)))
(let ((?x4409 (+ (+ (+ ?x3426 (* ?x9684 |WristLeft Norm|)) (* ?x7580 |ElbowLeft Norm|)) ?x417)))
(let ((?x257 (* |HipLeft Y| |HipLeft Norm|)))
(let ((?x6588 (+ (+ 0.0 ?x257) ?x257)))
(let ((?x6754 (- ?x6588 (+ (+ (+ ?x4409 ?x427) ?x443) ?x5556))))
(let ((?x7409 (ite (>= ?x6754 0.0) ?x6754 (- 0.0 ?x6754))))
(let ((?x5403 (* |HandLeft X| |HandLeft Norm|)))
(let ((?x441 (* |SpineMid X| |SpineMid Norm|)))
(let ((?x426 (* |SpineShoulder X| |SpineShoulder Norm|)))
(let ((?x416 (* |ShoulderLeft X| |ShoulderLeft Norm|)))
(let ((?x5070 (ite $x5097 (+ (* (/ 7.0 80.0) ?x7585) (* (/ 249.0 250.0) ?x7468)) (+ (* (~ (/ 7.0 80.0)) ?x7585) (* (/ 249.0 250.0) ?x7468)))))
(let ((?x8777 (ite $x1076 (+ (* (/ 7.0 80.0) ?x7580) (* (/ 249.0 250.0) ?x7468)) (+ (* (~ (/ 7.0 80.0)) ?x7580) (* (/ 249.0 250.0) ?x7468)))))
(let ((?x5000 (ite $x9815 ?x8777 ?x5070)))
(let ((?x4526 (+ 0.0 ?x5403)))
(let ((?x2225 (+ (+ (+ ?x4526 (* ?x5000 |WristLeft Norm|)) (* ?x7468 |ElbowLeft Norm|)) ?x416)))
(let ((?x256 (* |HipLeft X| |HipLeft Norm|)))
(let ((?x6584 (+ (+ 0.0 ?x256) ?x256)))
(let ((?x2878 (- ?x6584 (+ (+ (+ ?x2225 ?x426) ?x441) ?x5403))))
(let ((?x3291 (ite (>= ?x2878 0.0) ?x2878 (- 0.0 ?x2878))))
(let ((?x11122 (ite (>= ?x3291 ?x7409) ?x3291 ?x7409)))
(let (($x3588 (and true (< (ite (>= ?x11122 ?x7249) ?x11122 ?x7249) (/ 1.0 5.0)))))
(let ((?x197 (* (~ (/ 171.0 500.0)) 0.0)))
(let ((?x187 (* (/ 939.0 1000.0) 0.0)))
(let ((?x322 (+ ?x187 ?x197)))
(let ((?x194 (* (/ 171.0 500.0) 0.0)))
(let ((?x321 (+ ?x187 ?x194)))
(let ((?x323 (ite $x112 ?x321 ?x322)))
(let ((?x351 (- 0.0 1.0)))
(let (($x350 (>= 1.0 0.0)))
(let ((?x352 (ite $x350 1.0 ?x351)))
(let (($x5024 (>= ?x114 ?x352)))
(let ((?x6169 (ite $x5024 ?x323 0.0)))
(let ((?x5635 (* (~ (/ 1.0 2.0)) ?x6169)))
(let ((?x3828 (* (/ 939.0 1000.0) 1.0)))
(let ((?x4064 (+ ?x3828 ?x197)))
(let ((?x5439 (+ ?x3828 ?x194)))
(let ((?x6628 (ite $x350 ?x5439 ?x4064)))
(let ((?x6199 (ite $x5024 1.0 ?x6628)))
(let ((?x5518 (* (/ 433.0 500.0) ?x6199)))
(let ((?x4320 (+ ?x5518 ?x5635)))
(let ((?x5634 (* (/ 1.0 2.0) ?x6169)))
(let ((?x5504 (+ ?x5518 ?x5634)))
(let (($x4786 (>= ?x6199 0.0)))
(let ((?x4827 (ite $x4786 ?x5504 ?x4320)))
(let ((?x4768 (- 0.0 ?x6199)))
(let ((?x5454 (ite $x4786 ?x6199 ?x4768)))
(let ((?x5110 (* (/ 171.0 500.0) 1.0)))
(let ((?x3672 (+ ?x5110 ?x187)))
(let ((?x4166 (* (~ (/ 171.0 500.0)) 1.0)))
(let ((?x4618 (+ ?x4166 ?x187)))
(let ((?x6242 (ite $x350 ?x4618 ?x3672)))
(let ((?x314 (+ ?x194 ?x187)))
(let ((?x313 (+ ?x197 ?x187)))
(let ((?x315 (ite $x112 ?x313 ?x314)))
(let ((?x4558 (ite $x5024 ?x315 ?x6242)))
(let ((?x4763 (- 0.0 ?x4558)))
(let (($x4344 (>= ?x4558 0.0)))
(let ((?x5460 (ite $x4344 ?x4558 ?x4763)))
(let (($x5087 (>= ?x5460 ?x5454)))
(let ((?x4747 (ite $x5087 ?x6199 ?x4827)))
(let ((?x6970 (+ (+ ?x4357 (* (ite $x5087 ?x6199 (ite $x4786 ?x4320 ?x5504)) |WristLeft Norm|)) (* ?x4747 |ElbowLeft Norm|))))
(let ((?x389 (ite $x112 ?x322 ?x321)))
(let ((?x5576 (ite $x5024 ?x389 0.0)))
(let ((?x6214 (* (~ (/ 171.0 500.0)) ?x5576)))
(let ((?x4293 (ite $x350 ?x4064 ?x5439)))
(let ((?x4699 (ite $x5024 1.0 ?x4293)))
(let ((?x6640 (* (/ 939.0 1000.0) ?x4699)))
(let ((?x6186 (+ ?x6640 ?x6214)))
(let ((?x6223 (* (/ 171.0 500.0) ?x5576)))
(let ((?x6614 (+ ?x6640 ?x6223)))
(let (($x5917 (>= ?x4699 0.0)))
(let ((?x6821 (ite $x5917 ?x6614 ?x6186)))
(let ((?x5179 (- 0.0 ?x4699)))
(let ((?x6270 (ite $x5917 ?x4699 ?x5179)))
(let ((?x4560 (ite $x350 ?x3672 ?x4618)))
(let ((?x385 (ite $x112 ?x314 ?x313)))
(let ((?x5485 (ite $x5024 ?x385 ?x4560)))
(let ((?x5934 (- 0.0 ?x5485)))
(let (($x6151 (>= ?x5485 0.0)))
(let ((?x5914 (ite $x6151 ?x5485 ?x5934)))
(let (($x7862 (>= ?x5914 ?x6270)))
(let ((?x7952 (ite $x7862 ?x4699 ?x6821)))
(let ((?x7739 (* ?x7952 |ElbowRight Norm|)))
(let ((?x7752 (+ (+ (+ (+ 0.0 ?x7739) (* |ShoulderRight Z| |ShoulderRight Norm|)) ?x435) ?x159)))
(let ((?x7779 (+ ?x7752 ?x7739)))
(let ((?x6638 (- ?x7779 (+ (+ (+ (+ ?x6970 ?x420) ?x435) ?x159) ?x5357))))
(let ((?x7342 (ite (>= ?x6638 0.0) ?x6638 (- 0.0 ?x6638))))
(let ((?x5630 (* (/ 433.0 500.0) ?x6169)))
(let ((?x3642 (* (/ 1.0 2.0) ?x6199)))
(let ((?x5054 (+ ?x3642 ?x5630)))
(let ((?x5537 (* (~ (/ 1.0 2.0)) ?x6199)))
(let ((?x5529 (+ ?x5537 ?x5630)))
(let ((?x5535 (ite $x4786 ?x5529 ?x5054)))
(let ((?x5632 (* (/ 1.0 2.0) ?x4558)))
(let ((?x5052 (+ ?x5632 ?x5630)))
(let ((?x5640 (* (~ (/ 1.0 2.0)) ?x4558)))
(let ((?x5645 (+ ?x5640 ?x5630)))
(let ((?x4683 (ite $x4344 ?x5645 ?x5052)))
(let ((?x5516 (ite $x5087 ?x4683 ?x5535)))
(let ((?x7066 (* (ite $x5087 (ite $x4344 ?x5052 ?x5645) (ite $x4786 ?x5054 ?x5529)) |WristLeft Norm|)))
(let ((?x1006 (+ (+ (+ (+ (+ ?x3426 ?x7066) (* ?x5516 |ElbowLeft Norm|)) ?x417) ?x427) ?x443)))
(let ((?x3786 (* (/ 939.0 1000.0) ?x5576)))
(let ((?x6016 (* (/ 171.0 500.0) ?x4699)))
(let ((?x6613 (+ ?x6016 ?x3786)))
(let ((?x5941 (* (~ (/ 171.0 500.0)) ?x4699)))
(let ((?x6268 (+ ?x5941 ?x3786)))
(let ((?x7269 (ite $x5917 ?x6268 ?x6613)))
(let ((?x6048 (* (/ 171.0 500.0) ?x5485)))
(let ((?x6189 (+ ?x6048 ?x3786)))
(let ((?x6253 (* (~ (/ 171.0 500.0)) ?x5485)))
(let ((?x6636 (+ ?x6253 ?x3786)))
(let ((?x7081 (ite $x6151 ?x6636 ?x6189)))
(let ((?x7649 (ite $x7862 ?x7081 ?x7269)))
(let ((?x7488 (* ?x7649 |ElbowRight Norm|)))
(let ((?x7532 (+ (+ (+ (+ 0.0 ?x7488) (* |ShoulderRight Y| |ShoulderRight Norm|)) ?x427) ?x443)))
(let ((?x7959 (+ ?x7532 ?x7488)))
(let ((?x7192 (- ?x7959 (+ ?x1006 ?x5556))))
(let ((?x7118 (ite (>= ?x7192 0.0) ?x7192 (- 0.0 ?x7192))))
(let ((?x5627 (* (/ 433.0 500.0) ?x4558)))
(let ((?x5639 (+ ?x5627 ?x5635)))
(let ((?x5619 (+ ?x5627 ?x5634)))
(let ((?x5641 (ite $x4344 ?x5619 ?x5639)))
(let ((?x5628 (ite $x5087 ?x5641 ?x4558)))
(let ((?x964 (+ (+ ?x4526 (* (ite $x5087 (ite $x4344 ?x5639 ?x5619) ?x4558) |WristLeft Norm|)) (* ?x5628 |ElbowLeft Norm|))))
(let ((?x7261 (* (/ 939.0 1000.0) ?x5485)))
(let ((?x7263 (+ ?x7261 ?x6214)))
(let ((?x7264 (+ ?x7261 ?x6223)))
(let ((?x7270 (ite $x6151 ?x7264 ?x7263)))
(let ((?x7663 (ite $x7862 ?x7270 ?x5485)))
(let ((?x7957 (* ?x7663 |ElbowRight Norm|)))
(let ((?x7973 (+ (+ (+ (+ 0.0 ?x7957) (* |ShoulderRight X| |ShoulderRight Norm|)) ?x426) ?x441)))
(let ((?x7955 (+ ?x7973 ?x7957)))
(let ((?x5418 (- ?x7955 (+ (+ (+ (+ ?x964 ?x416) ?x426) ?x441) ?x5403))))
(let ((?x7498 (ite (>= ?x5418 0.0) ?x5418 (- 0.0 ?x5418))))
(let ((?x10075 (ite (>= ?x7498 ?x7118) ?x7498 ?x7118)))
(let (($x1877 (and true true)))
(let (($x7510 (and (and $x1877 (and true (< (ite (>= ?x10075 ?x7342) ?x10075 ?x7342) (/ 1.0 5.0)))) true)))
(let (($x9827 (and $x7510 $x3588)))
(let ((?x6247 (* (~ 1.0) |ElbowRight Norm|)))
(let ((?x11271 (* 1.0 |SpineMid Norm|)))
(let ((?x4285 (* 1.0 |SpineShoulder Norm|)))
(let ((?x5302 (* |ShoulderRight Y| |ShoulderRight Norm|)))
(let ((?x6175 (+ 0.0 ?x6247)))
(let ((?x6580 (+ ?x6175 ?x5302)))
(let ((?x8207 (+ ?x6580 ?x4285)))
(let ((?x11011 (+ ?x8207 ?x11271)))
(let ((?x10914 (+ ?x11011 ?x6247)))
(let ((?x10532 (- ?x10914 (/ 1.0 10.0))))
(let (($x11183 (>= ?x6270 ?x5914)))
(let ((?x11147 (ite $x11183 ?x6821 ?x4699)))
(let ((?x3509 (* ?x11147 |WristRight Norm|)))
(let ((?x7116 (+ 0.0 ?x3509)))
(let ((?x5226 (+ ?x7116 ?x6247)))
(let ((?x10557 (+ ?x5226 ?x5302)))
(let ((?x2255 (+ ?x10557 ?x4285)))
(let ((?x1420 (+ ?x2255 ?x11271)))
(let ((?x1422 (+ ?x1420 ?x3509)))
(let ((?x9041 (ite $x5917 ?x6186 ?x6614)))
(let ((?x11006 (ite $x11183 ?x9041 ?x4699)))
(let ((?x11042 (* ?x11006 |WristLeft Norm|)))
(let ((?x6432 (* (~ 1.0) |ElbowLeft Norm|)))
(let ((?x1183 (+ 0.0 ?x11042)))
(let ((?x3963 (+ ?x1183 ?x6432)))
(let ((?x11217 (+ ?x3963 ?x417)))
(let ((?x8184 (+ ?x11217 ?x4285)))
(let ((?x3571 (+ ?x8184 ?x11271)))
(let ((?x11877 (+ ?x3571 ?x11042)))
(let ((?x7165 (+ 0.0 ?x6432)))
(let ((?x6101 (+ ?x7165 ?x417)))
(let ((?x10616 (+ ?x6101 ?x4285)))
(let ((?x2510 (+ ?x10616 ?x11271)))
(let ((?x2511 (+ ?x2510 ?x6432)))
(let ((?x624 (- ?x2511 (/ 1.0 10.0))))
(let (($x10812 (and (and (and (and true (< ?x11877 ?x624)) (< ?x1422 ?x624)) (< ?x11877 ?x10532)) (< ?x1422 ?x10532))))
(let ((?x7295 (- |KneeRight Z| |AnkleLeft Z|)))
(let ((?x5940 (ite (>= ?x7295 0.0) ?x7295 (- 0.0 ?x7295))))
(let ((?x6352 (- |KneeRight Y| |AnkleLeft Y|)))
(let ((?x6337 (ite (>= ?x6352 0.0) ?x6352 (- 0.0 ?x6352))))
(let ((?x6331 (- |KneeRight X| |AnkleLeft X|)))
(let ((?x6060 (ite (>= ?x6331 0.0) ?x6331 (- 0.0 ?x6331))))
(let ((?x6577 (ite (>= ?x6060 ?x6337) ?x6060 ?x6337)))
(let (($x5939 (< (ite (>= ?x6577 ?x5940) ?x6577 ?x5940) (/ 347.0 1000.0))))
(let ((?x7276 (- |KneeLeft Z| |AnkleLeft Z|)))
(let ((?x7290 (ite (>= ?x7276 0.0) ?x7276 (- 0.0 ?x7276))))
(let ((?x7275 (- |KneeLeft Y| |AnkleLeft Y|)))
(let ((?x7285 (ite (>= ?x7275 0.0) ?x7275 (- 0.0 ?x7275))))
(let ((?x7273 (- |KneeLeft X| |AnkleLeft X|)))
(let ((?x7281 (ite (>= ?x7273 0.0) ?x7273 (- 0.0 ?x7273))))
(let ((?x7095 (ite (>= ?x7281 ?x7285) ?x7281 ?x7285)))
(let (($x7099 (< (ite (>= ?x7095 ?x7290) ?x7095 ?x7290) (/ 347.0 1000.0))))
(let (($x6275 (and true (not $x7099))))
(let (($x6539 (and $x6275 (not $x5939))))
(let (($x11517 (and (and (and (and $x1877 $x6539) true) true) $x10812)))
(let ((?x3957 (- |ThumbRight Z| |ThumbRight Z|)))
(let ((?x5304 (- 0.0 ?x3957)))
(let (($x5305 (>= ?x3957 0.0)))
(let ((?x5307 (ite $x5305 ?x3957 ?x5304)))
(let ((?x2491 (- |ThumbRight Y| |ThumbRight Y|)))
(let ((?x5299 (- 0.0 ?x2491)))
(let (($x5279 (>= ?x2491 0.0)))
(let ((?x5303 (ite $x5279 ?x2491 ?x5299)))
(let ((?x5477 (- |ThumbRight X| |ThumbRight X|)))
(let ((?x5278 (- 0.0 ?x5477)))
(let (($x3697 (>= ?x5477 0.0)))
(let ((?x5294 (ite $x3697 ?x5477 ?x5278)))
(let (($x5085 (>= ?x5294 ?x5303)))
(let ((?x4985 (ite $x5085 ?x5294 ?x5303)))
(let (($x4577 (>= ?x4985 ?x5307)))
(let ((?x3992 (ite $x4577 ?x4985 ?x5307)))
(let (($x5034 (< ?x3992 15.0)))
(let (($x1404 (and $x5034)))
(and $x1404 $x11517 $x9827)))))))))))))))))))))))))))))))))))))))))))))))))))))))))))))))))))))))))))))))))))))))))))))))))))))))))))))))))))))))))))))))))))))))))))))))))))))))))))))))))))))))))))))))))))))))))))))))))))))))))))))))))))))))))))))))))))))))))))))))))))))))))))))))))))))))))))))))))))))))))))))))))
(check-sat)
